; benchmark generated from python API
(set-info :status unknown)
(declare-fun x_month () Int)
(declare-fun x_day () Int)
(declare-fun x_year () Int)
(assert
 (>= x_month 1))
(assert
 (<= x_month 12))
(assert
 (>= x_day 1))
(assert
 (<= x_day 31))
(assert
 (let (($x273 (<= x_day 28)))
 (let (($x310 (<= x_day 29)))
 (let (($x294 (= (mod x_year 400) 0)))
 (let (($x318 (= (mod x_year 4) 0)))
 (let (($x328 (ite (or (and $x318 (and (distinct (mod x_year 100) 0) true)) $x294) $x310 $x273)))
 (let (($x284 (= x_month 2)))
 (ite $x284 $x328 true))))))))
(assert
 (let (($x340 (<= x_day 30)))
 (let (($x338 (or (= x_month 4) (= x_month 6) (= x_month 9) (= x_month 11))))
 (ite $x338 $x340 true))))
(assert
 (let (($x159 (= x_year 2020)))
 (let (($x303 (and $x159 (or (> x_month 1) (and (= x_month 1) (>= x_day 1))))))
 (or (> x_year 2020) $x303))))
(assert
 (let (($x159 (= x_year 2020)))
 (let (($x343 (and $x159 (or (< x_month 2) (and (= x_month 2) (<= x_day 28))))))
 (or (< x_year 2020) $x343))))
(assert
 (let (($x29 (or (and (= (mod 2000 4) 0) (and (distinct (mod 2000 100) 0) true)) (= (mod 2000 400) 0))))
(let ((?x36 (ite (= 3 2) (ite $x29 31 31) (ite (= 3 1) (ite $x29 0 0) 0))))
(let ((?x40 (ite $x29 60 59)))
(let ((?x41 (ite (= 3 3) ?x40 ?x36)))
(let ((?x46 (ite (= 3 4) (ite $x29 91 90) ?x41)))
(let ((?x52 (ite (= 3 5) (ite $x29 121 120) ?x46)))
(let ((?x58 (ite (= 3 6) (ite $x29 152 151) ?x52)))
(let ((?x64 (ite (= 3 7) (ite $x29 182 181) ?x58)))
(let ((?x70 (ite (= 3 8) (ite $x29 213 212) ?x64)))
(let ((?x76 (ite (= 3 9) (ite $x29 244 243) ?x70)))
(let ((?x82 (ite (= 3 10) (ite $x29 274 273) ?x76)))
(let ((?x88 (ite (= 3 11) (ite $x29 305 304) ?x82)))
(let ((?x16 (- (+ (* 365 (- 2000 1)) (div (- 2000 1) 4)) (div (- 2000 1) 100))))
(let ((?x95 (+ (+ ?x16 (div (- 2000 1) 400)) (ite (= 3 12) (ite $x29 335 334) ?x88))))
(let ((?x97 (+ ?x95 (- 1 1))))
(let ((?x467 (+ (mod (- (+ x_month (+ (* 0 12) 0)) 1) 12) 1)))
(let ((?x548 (ite (or (= ?x467 4) (= ?x467 6) (= ?x467 9) (= ?x467 11)) 30 31)))
(let ((?x466 (+ 0 (div (- (+ x_month (+ (* 0 12) 0)) 1) 12))))
(let ((?x468 (+ x_year ?x466)))
(let (($x532 (or (and (= (mod ?x468 4) 0) (and (distinct (mod ?x468 100) 0) true)) (= (mod ?x468 400) 0))))
(let ((?x549 (ite (= ?x467 2) (ite $x532 29 28) ?x548)))
(let (($x342 (< x_day 1)))
(let ((?x540 (ite $x342 1 (ite (> x_day ?x549) ?x549 x_day))))
(let (($x560 (and (= (mod (+ ?x468 (* (div 365 146097) 400)) 4) 0) (and (distinct (mod (+ ?x468 (* (div 365 146097) 400)) 100) 0) true))))
(let (($x594 (or $x560 (= (mod (+ ?x468 (* (div 365 146097) 400)) 400) 0))))
(let ((?x570 (ite (= 2 ?x467) (ite $x594 31 31) (ite (= 1 ?x467) (ite $x594 0 0) 0))))
(let ((?x567 (ite (= 4 ?x467) (ite $x594 91 90) (ite (= 3 ?x467) (ite $x594 60 59) ?x570))))
(let ((?x564 (ite (= 6 ?x467) (ite $x594 152 151) (ite (= 5 ?x467) (ite $x594 121 120) ?x567))))
(let ((?x579 (ite (= 8 ?x467) (ite $x594 213 212) (ite (= 7 ?x467) (ite $x594 182 181) ?x564))))
(let ((?x591 (ite (= 10 ?x467) (ite $x594 274 273) (ite (= 9 ?x467) (ite $x594 244 243) ?x579))))
(let ((?x629 (ite (= 12 ?x467) (ite $x594 335 334) (ite (= 11 ?x467) (ite $x594 305 304) ?x591))))
(let ((?x631 (+ (* 365 (- (+ ?x468 (* (div 365 146097) 400)) 1)) (div (- (+ ?x468 (* (div 365 146097) 400)) 1) 4))))
(let ((?x554 (+ (- ?x631 (div (- (+ ?x468 (* (div 365 146097) 400)) 1) 100)) (div (- (+ ?x468 (* (div 365 146097) 400)) 1) 400))))
(let ((?x620 (+ (+ (- (+ (+ ?x554 ?x629) (- ?x540 1)) ?x97) (mod 365 146097)) ?x97)))
(let ((?x617 (mod ?x620 146097)))
(let ((?x613 (div ?x617 36524)))
(let ((?x610 (ite (<= 4 ?x613) 3 ?x613)))
(let ((?x607 (- ?x617 (* ?x610 36524))))
(let ((?x604 (mod ?x607 1461)))
(let ((?x605 (div ?x604 365)))
(let ((?x602 (ite (<= 4 ?x605) 3 ?x605)))
(let ((?x603 (+ (+ (* (div ?x620 146097) 400) (* ?x610 100)) (* (div ?x607 1461) 4))))
(let ((?x609 (+ (+ ?x603 ?x602) 1)))
(let (($x633 (or (and (= (mod ?x609 4) 0) (and (distinct (mod ?x609 100) 0) true)) (= (mod ?x609 400) 0))))
(let ((?x599 (- ?x604 (* ?x602 365))))
(let ((?x634 (ite $x633 31 31)))
(let (($x227 (>= ?x599 ?x634)))
(let ((?x169 (ite $x227 (+ (- ?x599 ?x634) 1) (+ (- ?x599 (ite $x633 0 0)) 1))))
(let ((?x178 (ite $x633 60 59)))
(let (($x233 (>= ?x599 ?x178)))
(let ((?x179 (ite $x633 91 90)))
(let (($x239 (>= ?x599 ?x179)))
(let ((?x212 (ite $x239 (+ (- ?x599 ?x179) 1) (ite $x233 (+ (- ?x599 ?x178) 1) ?x169))))
(let ((?x134 (ite $x633 121 120)))
(let (($x245 (>= ?x599 ?x134)))
(let ((?x180 (ite $x633 152 151)))
(let (($x249 (>= ?x599 ?x180)))
(let ((?x637 (ite $x249 (+ (- ?x599 ?x180) 1) (ite $x245 (+ (- ?x599 ?x134) 1) ?x212))))
(let ((?x181 (ite $x633 182 181)))
(let (($x215 (>= ?x599 ?x181)))
(let ((?x182 (ite $x633 213 212)))
(let (($x205 (>= ?x599 ?x182)))
(let ((?x646 (ite $x205 (+ (- ?x599 ?x182) 1) (ite $x215 (+ (- ?x599 ?x181) 1) ?x637))))
(let ((?x183 (ite $x633 244 243)))
(let (($x234 (>= ?x599 ?x183)))
(let ((?x218 (ite $x633 274 273)))
(let (($x231 (>= ?x599 ?x218)))
(let ((?x652 (ite $x231 (+ (- ?x599 ?x218) 1) (ite $x234 (+ (- ?x599 ?x183) 1) ?x646))))
(let ((?x221 (ite $x633 305 304)))
(let (($x228 (>= ?x599 ?x221)))
(let ((?x224 (ite $x633 335 334)))
(let (($x226 (>= ?x599 ?x224)))
(let ((?x658 (ite $x226 (+ (- ?x599 ?x224) 1) (ite $x228 (+ (- ?x599 ?x221) 1) ?x652))))
(let (($x550 (= 0 365)))
(let ((?x269 (+ (mod (- (+ x_month (+ (* 1 12) 0)) 1) 12) 1)))
(let ((?x336 (ite (or (= ?x269 4) (= ?x269 6) (= ?x269 9) (= ?x269 11)) 30 31)))
(let ((?x160 (+ 0 (div (- (+ x_month (+ (* 1 12) 0)) 1) 12))))
(let ((?x229 (+ x_year ?x160)))
(let (($x285 (or (and (= (mod ?x229 4) 0) (and (distinct (mod ?x229 100) 0) true)) (= (mod ?x229 400) 0))))
(let ((?x339 (ite (= ?x269 2) (ite $x285 29 28) ?x336)))
(let ((?x345 (ite $x342 1 (ite (> x_day ?x339) ?x339 x_day))))
(let (($x129 (and (= (mod (+ ?x229 (* (div 0 146097) 400)) 4) 0) (and (distinct (mod (+ ?x229 (* (div 0 146097) 400)) 100) 0) true))))
(let (($x133 (or $x129 (= (mod (+ ?x229 (* (div 0 146097) 400)) 400) 0))))
(let ((?x393 (ite (= 2 ?x269) (ite $x133 31 31) (ite (= 1 ?x269) (ite $x133 0 0) 0))))
(let ((?x385 (ite (= 4 ?x269) (ite $x133 91 90) (ite (= 3 ?x269) (ite $x133 60 59) ?x393))))
(let ((?x379 (ite (= 6 ?x269) (ite $x133 152 151) (ite (= 5 ?x269) (ite $x133 121 120) ?x385))))
(let ((?x370 (ite (= 8 ?x269) (ite $x133 213 212) (ite (= 7 ?x269) (ite $x133 182 181) ?x379))))
(let ((?x384 (ite (= 10 ?x269) (ite $x133 274 273) (ite (= 9 ?x269) (ite $x133 244 243) ?x370))))
(let ((?x108 (ite (= 12 ?x269) (ite $x133 335 334) (ite (= 11 ?x269) (ite $x133 305 304) ?x384))))
(let ((?x359 (+ (* 365 (- (+ ?x229 (* (div 0 146097) 400)) 1)) (div (- (+ ?x229 (* (div 0 146097) 400)) 1) 4))))
(let ((?x257 (+ (- ?x359 (div (- (+ ?x229 (* (div 0 146097) 400)) 1) 100)) (div (- (+ ?x229 (* (div 0 146097) 400)) 1) 400))))
(let ((?x119 (+ (+ (- (+ (+ ?x257 ?x108) (- ?x345 1)) ?x97) (mod 0 146097)) ?x97)))
(let ((?x140 (mod ?x119 146097)))
(let ((?x141 (div ?x140 36524)))
(let ((?x154 (ite (<= 4 ?x141) 3 ?x141)))
(let ((?x372 (- ?x140 (* ?x154 36524))))
(let ((?x398 (mod ?x372 1461)))
(let ((?x139 (div ?x398 365)))
(let ((?x391 (ite (<= 4 ?x139) 3 ?x139)))
(let ((?x396 (+ (+ (* (div ?x119 146097) 400) (* ?x154 100)) (* (div ?x372 1461) 4))))
(let ((?x362 (+ (+ ?x396 ?x391) 1)))
(let (($x111 (or (and (= (mod ?x362 4) 0) (and (distinct (mod ?x362 100) 0) true)) (= (mod ?x362 400) 0))))
(let ((?x103 (- ?x398 (* ?x391 365))))
(let ((?x253 (ite $x111 31 31)))
(let (($x478 (>= ?x103 ?x253)))
(let ((?x510 (ite $x478 (+ (- ?x103 ?x253) 1) (+ (- ?x103 (ite $x111 0 0)) 1))))
(let ((?x106 (ite $x111 60 59)))
(let (($x480 (>= ?x103 ?x106)))
(let ((?x446 (ite $x111 91 90)))
(let (($x482 (>= ?x103 ?x446)))
(let ((?x501 (ite $x482 (+ (- ?x103 ?x446) 1) (ite $x480 (+ (- ?x103 ?x106) 1) ?x510))))
(let ((?x447 (ite $x111 121 120)))
(let (($x451 (>= ?x103 ?x447)))
(let ((?x448 (ite $x111 152 151)))
(let (($x484 (>= ?x103 ?x448)))
(let ((?x492 (ite $x484 (+ (- ?x103 ?x448) 1) (ite $x451 (+ (- ?x103 ?x447) 1) ?x501))))
(let ((?x450 (ite $x111 182 181)))
(let (($x486 (>= ?x103 ?x450)))
(let ((?x452 (ite $x111 213 212)))
(let (($x488 (>= ?x103 ?x452)))
(let ((?x508 (ite $x488 (+ (- ?x103 ?x452) 1) (ite $x486 (+ (- ?x103 ?x450) 1) ?x492))))
(let ((?x474 (ite $x111 244 243)))
(let (($x490 (>= ?x103 ?x474)))
(let ((?x475 (ite $x111 274 273)))
(let (($x525 (>= ?x103 ?x475)))
(let ((?x526 (ite $x525 (+ (- ?x103 ?x475) 1) (ite $x490 (+ (- ?x103 ?x474) 1) ?x508))))
(let ((?x476 (ite $x111 305 304)))
(let (($x522 (>= ?x103 ?x476)))
(let ((?x477 (ite $x111 335 334)))
(let (($x519 (>= ?x103 ?x477)))
(let ((?x456 (ite $x519 (+ (- ?x103 ?x477) 1) (ite $x522 (+ (- ?x103 ?x476) 1) ?x526))))
(let (($x348 (= 0 0)))
(let ((?x248 (ite $x245 5 (ite $x239 4 (ite $x233 3 (ite $x227 2 1))))))
(let ((?x235 (ite $x234 9 (ite $x205 8 (ite $x215 7 (ite $x249 6 ?x248))))))
(let ((?x201 (ite $x226 12 (ite $x228 11 (ite $x231 10 ?x235)))))
(let ((?x524 (ite $x451 5 (ite $x482 4 (ite $x480 3 (ite $x478 2 1))))))
(let ((?x491 (ite $x490 9 (ite $x488 8 (ite $x486 7 (ite $x484 6 ?x524))))))
(let (($x267 (= (ite $x348 ?x269 (ite $x519 12 (ite $x522 11 (ite $x525 10 ?x491)))) (ite $x550 ?x467 ?x201))))
(let (($x662 (and (= (ite $x348 ?x229 ?x362) (ite $x550 ?x468 ?x609)) $x267 (= (ite $x348 ?x345 ?x456) (ite $x550 ?x540 ?x658)))))
(not $x662)))))))))))))))))))))))))))))))))))))))))))))))))))))))))))))))))))))))))))))))))))))))))))))))))))))))))))))))))))))))))))))))))))))))))))))
(check-sat)
